db/data/2619121287196631604321111889479434841.z3.out
sat
-------------------
2425.653707669
